27	3

10	10	10	

0	0	0	0	3	2	3	4	
2	3	5	2	2	6	7	
2	5	4	3	3	5	6	8	
2	5	2	2	2	5	6	
2	4	1	4	2	10	11	
2	5	5	4	2	10	12	
3	3	5	2	2	9	10	
1	2	4	4	2	9	11	
5	3	2	2	2	14	16	
4	3	2	4	2	15	16	
2	3	3	2	1	14	
3	4	1	4	1	13	
2	1	4	4	2	18	20	
2	2	2	2	1	17	
2	5	5	4	2	17	19	
2	1	5	4	1	17	
2	4	5	4	1	21	
4	3	2	3	1	21	
2	5	3	3	2	22	24	
4	2	4	6	1	23	
5	1	6	2	1	25	
7	3	2	1	1	25	
5	1	0	4	1	25	
3	2	2	1	2	25	26	
2	0	1	3	1	27	
3	2	2	2	1	27	
0	0	0	0	0	
